p edge 500 207
e 55 316 1.000000
e 55 360 1.000000
e 316 360 1.000000
e 334 387 1.000000
e 270 387 1.000000
e 270 334 1.000000
e 127 482 1.000000
e 127 139 1.000000
e 139 482 1.000000
e 131 377 1.000000
e 131 150 1.000000
e 150 377 1.000000
e 38 376 1.000000
e 38 338 1.000000
e 338 376 1.000000
e 231 239 1.000000
e 156 231 1.000000
e 156 239 1.000000
e 351 447 1.000000
e 204 351 1.000000
e 204 447 1.000000
e 202 399 1.000000
e 202 466 1.000000
e 399 466 1.000000
e 61 135 1.000000
e 61 115 1.000000
e 115 135 1.000000
e 446 462 1.000000
e 162 446 1.000000
e 162 462 1.000000
e 184 414 1.000000
e 134 184 1.000000
e 134 414 1.000000
e 185 412 1.000000
e 185 324 1.000000
e 324 412 1.000000
e 265 324 1.000000
e 77 324 1.000000
e 77 265 1.000000
e 83 283 1.000000
e 83 341 1.000000
e 283 341 1.000000
e 141 340 1.000000
e 85 340 1.000000
e 85 141 1.000000
e 6 334 1.000000
e 6 36 1.000000
e 36 334 1.000000
e 63 305 1.000000
e 63 173 1.000000
e 173 305 1.000000
e 15 43 1.000000
e 15 141 1.000000
e 43 141 1.000000
e 105 438 1.000000
e 105 196 1.000000
e 196 438 1.000000
e 207 299 1.000000
e 207 479 1.000000
e 299 479 1.000000
e 225 459 1.000000
e 225 312 1.000000
e 312 459 1.000000
e 49 447 1.000000
e 49 329 1.000000
e 329 447 1.000000
e 352 454 1.000000
e 58 352 1.000000
e 58 454 1.000000
e 297 302 1.000000
e 297 327 1.000000
e 302 327 1.000000
e 187 325 1.000000
e 93 325 1.000000
e 93 187 1.000000
e 49 443 1.000000
e 49 383 1.000000
e 383 443 1.000000
e 250 448 1.000000
e 250 264 1.000000
e 264 448 1.000000
e 100 345 1.000000
e 100 139 1.000000
e 139 345 1.000000
e 232 320 1.000000
e 112 232 1.000000
e 112 320 1.000000
e 249 409 1.000000
e 145 249 1.000000
e 145 409 1.000000
e 131 257 1.000000
e 53 257 1.000000
e 53 131 1.000000
e 63 419 1.000000
e 46 63 1.000000
e 46 419 1.000000
e 143 144 1.000000
e 61 143 1.000000
e 61 144 1.000000
e 15 83 1.000000
e 15 380 1.000000
e 83 380 1.000000
e 211 352 1.000000
e 59 211 1.000000
e 59 352 1.000000
e 270 301 1.000000
e 48 270 1.000000
e 48 301 1.000000
e 218 246 1.000000
e 218 499 1.000000
e 246 499 1.000000
e 87 351 1.000000
e 87 274 1.000000
e 274 351 1.000000
e 198 234 1.000000
e 159 198 1.000000
e 159 234 1.000000
e 236 249 1.000000
e 224 249 1.000000
e 224 236 1.000000
e 214 305 1.000000
e 214 424 1.000000
e 305 424 1.000000
e 49 132 1.000000
e 49 243 1.000000
e 132 243 1.000000
e 202 231 1.000000
e 121 202 1.000000
e 121 231 1.000000
e 444 481 1.000000
e 316 444 1.000000
e 316 481 1.000000
e 251 292 1.000000
e 35 251 1.000000
e 35 292 1.000000
e 74 251 1.000000
e 74 361 1.000000
e 251 361 1.000000
e 137 293 1.000000
e 137 226 1.000000
e 226 293 1.000000
e 10 423 1.000000
e 10 361 1.000000
e 361 423 1.000000
e 208 484 1.000000
e 208 217 1.000000
e 217 484 1.000000
e 11 178 1.000000
e 11 364 1.000000
e 178 364 1.000000
e 292 481 1.000000
e 189 292 1.000000
e 189 481 1.000000
e 135 242 1.000000
e 135 183 1.000000
e 183 242 1.000000
e 155 272 1.000000
e 97 155 1.000000
e 97 272 1.000000
e 22 322 1.000000
e 22 287 1.000000
e 287 322 1.000000
e 241 409 1.000000
e 132 241 1.000000
e 132 409 1.000000
e 49 199 1.000000
e 49 51 1.000000
e 51 199 1.000000
e 18 99 1.000000
e 18 160 1.000000
e 99 160 1.000000
e 13 301 1.000000
e 1 13 1.000000
e 1 301 1.000000
e 260 268 1.000000
e 145 260 1.000000
e 145 268 1.000000
e 412 480 1.000000
e 184 480 1.000000
e 184 412 1.000000
e 59 129 1.000000
e 18 129 1.000000
e 18 59 1.000000
e 75 490 1.000000
e 75 397 1.000000
e 397 490 1.000000
e 102 118 1.000000
e 1 102 1.000000
e 1 118 1.000000
e 129 447 1.000000
e 129 257 1.000000
e 257 447 1.000000
e 94 136 1.000000
e 94 128 1.000000
e 128 136 1.000000
e 107 310 1.000000
e 107 349 1.000000
e 310 349 1.000000
e 170 470 1.000000
e 150 470 1.000000
e 150 170 1.000000
e 370 390 1.000000
e 370 459 1.000000
e 390 459 1.000000
e 189 288 1.000000
e 17 189 1.000000
e 17 288 1.000000
